100 59221

 405 43
246 385
742 621
591 435
661 408
650 483
471 664
826 17
888 645
423 148
901 277
65 232
13 826
213 927
986 366
242 228
493 651
213 436
693 399
338 211
997 391
173 499
672 540
164 563
465 491
995 442
497 261
700 773
395 350
703 352
917 520
308 320
768 138
183 550
629 623
794 992
510 368
708 220
546 337
564 223
624 648
764 768
594 360
744 921
227 329
745 962
733 463
436 946
925 963
422 561
554 804
21 382
554 836
397 590
625 617
105 169
192 217
17 378
120 119
393 190
425 767
129 370
130 778
572 149
560 676
29 652
97 859
10 488
242 770
826 374
956 781
232 693
789 160
284 351
715 912
759 288
802 288
776 892
955 226
726 523
200 522
945 783
79 273
913 936
956 402
855 183
856 969
173 665
467 488
581 827
416 846
940 124
449 985
87 626
101 790
8 414
845 980
200 725
505 172
87 288
